letting n =  10
letting blocks =  [[1, 1], [1, 4], [1, 7], [1, 9], [1, 10], [2, 1], [2, 2], [2, 4], [2, 6], [2, 9], [2, 10], [3, 2], [3, 3], [3, 8], [4, 1], [4, 3], [4, 4], [4, 6], [4, 10], [5, 5], [5, 7], [5, 8], [5, 9], [6, 3], [6, 4], [6, 5], [6, 7], [7, 1], [7, 4], [7, 7], [7, 9], [9, 4], [9, 5], [9, 8], [10, 7], [10, 9]]
